param N := 6;

param StartCity := 0;

param Distances:=
[1,1] 0     [1,2] 182 [1,3] 70  [1,4] 399 [1,5] 56  [1,6] 214
[2,1] 182   [2,2] 0   [2,3] 255 [2,4] 229 [2,5] 132 [2,6] 267
[3,1] 70    [3,2] 255 [3,3] 0   [3,4] 472 [3,5] 127 [3,6] 287
[4,1] 399   [4,2] 229 [4,3] 472 [4,4] 0   [4,5] 356 [4,6] 484
[5,1] 56    [5,2] 132 [5,3] 127 [5,4] 356 [5,5] 0   [5,6] 179
[6,1] 214   [6,2] 267 [6,3] 287 [6,4] 484 [6,5] 179 [6,6] 0;
